Optimal - objective value 321.00000000
      0 C_0       18.9999999999999                       0
      1 C_1       4.99999999999998                       0
      2 C_2       5.99999999999997                       0
      3 C_3                    15                       0
      4 C_4       28.9999999999998                       0
      5 C_5       31.9999999999999                       0
      6 C_6       29.9999999999999                       0
      7 C_7       12.9999999999999                       0
      8 C_8       20.9999999999998                       0
     10 x_0_1                   1                     972
     13 x_1_1                   1                    2673
     17 x_2_2                   1                    5103
     18 x_3_0                   1                     972
     23 x_4_2                   1                     243
     24 x_5_0                   1                     243
     28 x_6_1                   1                     243
     32 x_7_2                   1                    2673
     35 x_8_2                   1                     972
     39 d_0_2_0                 1                       0
     41 d_0_2_2                 1                       0
     42 d_0_3_0                 1                       0
     44 d_0_3_2                 1                       0
     46 d_0_4_1                 1                       0
     47 d_0_4_2                 1                       0
     48 d_0_5_0                 1                       0
     49 d_0_5_1                 1                       0
     50 d_0_5_2                 1                       0
     51 d_0_6_0                 1                       0
     52 d_0_6_1                 1                     243
     53 d_0_6_2                 1                       0
     54 d_0_7_0                 1                       0
     56 d_0_7_2                 1                       0
     57 d_0_8_0                 1                       0
     59 d_0_8_2                 1                       0
     62 d_1_2_2                 1                       0
     64 d_1_3_1                 1                       0
     66 d_1_4_0                 1                       0
     67 d_1_4_1                 1                       0
     68 d_1_4_2                 1                       0
     69 d_1_5_0                 1                       0
     70 d_1_5_1                 1                       0
     71 d_1_5_2                 1                       0
     72 d_1_6_0                 1                       0
     73 d_1_6_1                 1                       0
     74 d_1_6_2                 1                       0
     75 d_1_7_0                 1                       0
     77 d_1_7_2                 1                       0
     78 d_1_8_0                 1                       0
     79 d_1_8_1                 1                       0
     81 d_2_3_0                 1                       0
     82 d_2_3_1                 1                       0
     83 d_2_3_2                 1                       0
     84 d_2_4_0                 1                       0
     85 d_2_4_1                 1                       0
     86 d_2_4_2                 1                       0
     87 d_2_5_0                 1                       0
     88 d_2_5_1                 1                       0
     89 d_2_5_2                 1                       0
     90 d_2_6_0                 1                       0
     91 d_2_6_1                 1                       0
     92 d_2_6_2                 1                       0
     93 d_2_7_0                 1                       0
     94 d_2_7_1                 1                       0
     95 d_2_7_2                 1                    1944
     96 d_2_8_0                 1                       0
     97 d_2_8_1                 1                       0
     98 d_2_8_2                 1                       0
    100 d_3_4_1                 1                       0
    101 d_3_4_2                 1                       0
    102 d_3_5_0                 1                     243
    103 d_3_5_1                 1                       0
    104 d_3_5_2                 1                       0
    105 d_3_6_0                 1                       0
    109 d_3_7_1                 1                       0
    111 d_3_8_0                 1                       0
    112 d_3_8_1                 1                       0
    114 d_4_5_0                 1                       0
    116 d_4_5_2                 1                       0
    123 d_4_8_0                 1                       0
    136 d_6_7_1                 1                       0
    137 d_6_7_2                 1                       0
    138 d_6_8_0                 1                       0
    139 d_6_8_1                 1                       0
    140 d_6_8_2                 1                       0
    141 d_7_8_0                 1                       0
    142 d_7_8_1                 1                       0
    143 d_7_8_2                 1                     729
